% Auto-generated by scripts/generate_dzn.py
% problem_type   = shift_scheduling
% instance       = shift_scheduling_23
% source_json    = instances_json/1_medium_blowup/shift_scheduling_23.json
% blowup         = 3.198019801980198
% representation = DFA

mode = 0;

sequence_length = 14;
n_constraints = 3;
Q = 129;
S = 4;
q0 = [1, 1, 1];
F = [{129}, {129}, {65}];
d_dfa = array3d(1..3, 1..129, 1..4, [
  % k = 1
    1, 2, 1, 1,
    3, 4, 3, 3,
    5, 6, 5, 5,
    7, 8, 7, 7,
    9, 10, 9, 9,
    11, 12, 11, 11,
    13, 14, 13, 13,
    15, 16, 15, 15,
    17, 18, 17, 17,
    19, 20, 19, 19,
    21, 22, 21, 21,
    23, 24, 23, 23,
    25, 26, 25, 25,
    27, 28, 27, 27,
    29, 30, 29, 29,
    31, 32, 31, 31,
    33, 34, 33, 33,
    35, 36, 35, 35,
    37, 38, 37, 37,
    39, 40, 39, 39,
    41, 42, 41, 41,
    43, 44, 43, 43,
    45, 46, 45, 45,
    47, 48, 47, 47,
    49, 50, 49, 49,
    51, 52, 51, 51,
    53, 54, 53, 53,
    55, 56, 55, 55,
    57, 58, 57, 57,
    59, 60, 59, 59,
    61, 62, 61, 61,
    63, 64, 63, 63,
    65, 66, 65, 65,
    67, 68, 67, 67,
    69, 70, 69, 69,
    71, 72, 71, 71,
    73, 74, 73, 73,
    75, 76, 75, 75,
    77, 78, 77, 77,
    79, 80, 79, 79,
    81, 82, 81, 81,
    83, 84, 83, 83,
    85, 86, 85, 85,
    87, 88, 87, 87,
    89, 90, 89, 89,
    91, 92, 91, 91,
    93, 94, 93, 93,
    95, 96, 95, 95,
    97, 98, 97, 97,
    99, 100, 99, 99,
    101, 102, 101, 101,
    103, 104, 103, 103,
    105, 106, 105, 105,
    107, 108, 107, 107,
    109, 110, 109, 109,
    111, 112, 111, 111,
    113, 114, 113, 113,
    115, 116, 115, 115,
    117, 118, 117, 117,
    119, 120, 119, 119,
    121, 122, 121, 121,
    123, 124, 123, 123,
    125, 126, 125, 125,
    127, 128, 127, 127,
    1, 2, 1, 129,
    3, 4, 3, 129,
    5, 6, 5, 129,
    7, 8, 7, 129,
    9, 10, 9, 129,
    11, 12, 11, 129,
    13, 14, 13, 129,
    15, 16, 15, 129,
    17, 18, 17, 129,
    19, 20, 19, 129,
    21, 22, 21, 129,
    23, 24, 23, 129,
    25, 26, 25, 129,
    27, 28, 27, 129,
    29, 30, 29, 129,
    31, 32, 31, 129,
    33, 34, 33, 129,
    35, 36, 35, 129,
    37, 38, 37, 129,
    39, 40, 39, 129,
    41, 42, 41, 129,
    43, 44, 43, 129,
    45, 46, 45, 129,
    47, 48, 47, 129,
    49, 50, 49, 129,
    51, 52, 51, 129,
    53, 54, 53, 129,
    55, 56, 55, 129,
    57, 58, 57, 129,
    59, 60, 59, 129,
    61, 62, 61, 129,
    63, 64, 63, 129,
    65, 66, 65, 129,
    67, 68, 67, 129,
    69, 70, 69, 129,
    71, 72, 71, 129,
    73, 74, 73, 129,
    75, 76, 75, 129,
    77, 78, 77, 129,
    79, 80, 79, 129,
    81, 82, 81, 129,
    83, 84, 83, 129,
    85, 86, 85, 129,
    87, 88, 87, 129,
    89, 90, 89, 129,
    91, 92, 91, 129,
    93, 94, 93, 129,
    95, 96, 95, 129,
    97, 98, 97, 129,
    99, 100, 99, 129,
    101, 102, 101, 129,
    103, 104, 103, 129,
    105, 106, 105, 129,
    107, 108, 107, 129,
    109, 110, 109, 129,
    111, 112, 111, 129,
    113, 114, 113, 129,
    115, 116, 115, 129,
    117, 118, 117, 129,
    119, 120, 119, 129,
    121, 122, 121, 129,
    123, 124, 123, 129,
    125, 126, 125, 129,
    127, 128, 127, 129,
    129, 129, 129, 129,

  % k = 2
    1, 1, 2, 1,
    3, 3, 4, 3,
    5, 5, 6, 5,
    7, 7, 8, 7,
    9, 9, 10, 9,
    11, 11, 12, 11,
    13, 13, 14, 13,
    15, 15, 16, 15,
    17, 17, 18, 17,
    19, 19, 20, 19,
    21, 21, 22, 21,
    23, 23, 24, 23,
    25, 25, 26, 25,
    27, 27, 28, 27,
    29, 29, 30, 29,
    31, 31, 32, 31,
    33, 33, 34, 33,
    35, 35, 36, 35,
    37, 37, 38, 37,
    39, 39, 40, 39,
    41, 41, 42, 41,
    43, 43, 44, 43,
    45, 45, 46, 45,
    47, 47, 48, 47,
    49, 49, 50, 49,
    51, 51, 52, 51,
    53, 53, 54, 53,
    55, 55, 56, 55,
    57, 57, 58, 57,
    59, 59, 60, 59,
    61, 61, 62, 61,
    63, 63, 64, 63,
    65, 65, 66, 65,
    67, 67, 68, 67,
    69, 69, 70, 69,
    71, 71, 72, 71,
    73, 73, 74, 73,
    75, 75, 76, 75,
    77, 77, 78, 77,
    79, 79, 80, 79,
    81, 81, 82, 81,
    83, 83, 84, 83,
    85, 85, 86, 85,
    87, 87, 88, 87,
    89, 89, 90, 89,
    91, 91, 92, 91,
    93, 93, 94, 93,
    95, 95, 96, 95,
    97, 97, 98, 97,
    99, 99, 100, 99,
    101, 101, 102, 101,
    103, 103, 104, 103,
    105, 105, 106, 105,
    107, 107, 108, 107,
    109, 109, 110, 109,
    111, 111, 112, 111,
    113, 113, 114, 113,
    115, 115, 116, 115,
    117, 117, 118, 117,
    119, 119, 120, 119,
    121, 121, 122, 121,
    123, 123, 124, 123,
    125, 125, 126, 125,
    127, 127, 128, 127,
    1, 1, 2, 129,
    3, 3, 4, 129,
    5, 5, 6, 129,
    7, 7, 8, 129,
    9, 9, 10, 129,
    11, 11, 12, 129,
    13, 13, 14, 129,
    15, 15, 16, 129,
    17, 17, 18, 129,
    19, 19, 20, 129,
    21, 21, 22, 129,
    23, 23, 24, 129,
    25, 25, 26, 129,
    27, 27, 28, 129,
    29, 29, 30, 129,
    31, 31, 32, 129,
    33, 33, 34, 129,
    35, 35, 36, 129,
    37, 37, 38, 129,
    39, 39, 40, 129,
    41, 41, 42, 129,
    43, 43, 44, 129,
    45, 45, 46, 129,
    47, 47, 48, 129,
    49, 49, 50, 129,
    51, 51, 52, 129,
    53, 53, 54, 129,
    55, 55, 56, 129,
    57, 57, 58, 129,
    59, 59, 60, 129,
    61, 61, 62, 129,
    63, 63, 64, 129,
    65, 65, 66, 129,
    67, 67, 68, 129,
    69, 69, 70, 129,
    71, 71, 72, 129,
    73, 73, 74, 129,
    75, 75, 76, 129,
    77, 77, 78, 129,
    79, 79, 80, 129,
    81, 81, 82, 129,
    83, 83, 84, 129,
    85, 85, 86, 129,
    87, 87, 88, 129,
    89, 89, 90, 129,
    91, 91, 92, 129,
    93, 93, 94, 129,
    95, 95, 96, 129,
    97, 97, 98, 129,
    99, 99, 100, 129,
    101, 101, 102, 129,
    103, 103, 104, 129,
    105, 105, 106, 129,
    107, 107, 108, 129,
    109, 109, 110, 129,
    111, 111, 112, 129,
    113, 113, 114, 129,
    115, 115, 116, 129,
    117, 117, 118, 129,
    119, 119, 120, 129,
    121, 121, 122, 129,
    123, 123, 124, 129,
    125, 125, 126, 129,
    127, 127, 128, 129,
    129, 129, 129, 129,

  % k = 3
    1, 2, 1, 1,
    3, 4, 3, 3,
    5, 6, 5, 5,
    7, 8, 7, 7,
    9, 10, 9, 9,
    11, 12, 11, 11,
    13, 14, 13, 13,
    15, 16, 15, 15,
    17, 18, 17, 17,
    19, 20, 19, 19,
    21, 22, 21, 21,
    23, 24, 23, 23,
    25, 26, 25, 25,
    27, 28, 27, 27,
    29, 30, 29, 29,
    31, 32, 31, 31,
    33, 34, 33, 33,
    35, 36, 35, 35,
    37, 38, 37, 37,
    39, 40, 39, 39,
    41, 42, 41, 41,
    43, 44, 43, 43,
    45, 46, 45, 45,
    47, 48, 47, 47,
    49, 50, 49, 49,
    51, 52, 51, 51,
    53, 54, 53, 53,
    55, 56, 55, 55,
    57, 58, 57, 57,
    59, 60, 59, 59,
    61, 62, 61, 61,
    63, 64, 63, 63,
    1, 2, 1, 65,
    3, 4, 3, 65,
    5, 6, 5, 65,
    7, 8, 7, 65,
    9, 10, 9, 65,
    11, 12, 11, 65,
    13, 14, 13, 65,
    15, 16, 15, 65,
    17, 18, 17, 65,
    19, 20, 19, 65,
    21, 22, 21, 65,
    23, 24, 23, 65,
    25, 26, 25, 65,
    27, 28, 27, 65,
    29, 30, 29, 65,
    31, 32, 31, 65,
    33, 34, 33, 65,
    35, 36, 35, 65,
    37, 38, 37, 65,
    39, 40, 39, 65,
    41, 42, 41, 65,
    43, 44, 43, 65,
    45, 46, 45, 65,
    47, 48, 47, 65,
    49, 50, 49, 65,
    51, 52, 51, 65,
    53, 54, 53, 65,
    55, 56, 55, 65,
    57, 58, 57, 65,
    59, 60, 59, 65,
    61, 62, 61, 65,
    63, 64, 63, 65,
    65, 65, 65, 65,
    0, 0, 0, 0,
    0, 0, 0, 0,
    0, 0, 0, 0,
    0, 0, 0, 0,
    0, 0, 0, 0,
    0, 0, 0, 0,
    0, 0, 0, 0,
    0, 0, 0, 0,
    0, 0, 0, 0,
    0, 0, 0, 0,
    0, 0, 0, 0,
    0, 0, 0, 0,
    0, 0, 0, 0,
    0, 0, 0, 0,
    0, 0, 0, 0,
    0, 0, 0, 0,
    0, 0, 0, 0,
    0, 0, 0, 0,
    0, 0, 0, 0,
    0, 0, 0, 0,
    0, 0, 0, 0,
    0, 0, 0, 0,
    0, 0, 0, 0,
    0, 0, 0, 0,
    0, 0, 0, 0,
    0, 0, 0, 0,
    0, 0, 0, 0,
    0, 0, 0, 0,
    0, 0, 0, 0,
    0, 0, 0, 0,
    0, 0, 0, 0,
    0, 0, 0, 0,
    0, 0, 0, 0,
    0, 0, 0, 0,
    0, 0, 0, 0,
    0, 0, 0, 0,
    0, 0, 0, 0,
    0, 0, 0, 0,
    0, 0, 0, 0,
    0, 0, 0, 0,
    0, 0, 0, 0,
    0, 0, 0, 0,
    0, 0, 0, 0,
    0, 0, 0, 0,
    0, 0, 0, 0,
    0, 0, 0, 0,
    0, 0, 0, 0,
    0, 0, 0, 0,
    0, 0, 0, 0,
    0, 0, 0, 0,
    0, 0, 0, 0,
    0, 0, 0, 0,
    0, 0, 0, 0,
    0, 0, 0, 0,
    0, 0, 0, 0,
    0, 0, 0, 0,
    0, 0, 0, 0,
    0, 0, 0, 0,
    0, 0, 0, 0,
    0, 0, 0, 0,
    0, 0, 0, 0,
    0, 0, 0, 0,
    0, 0, 0, 0,
    0, 0, 0, 0
]);
d_nfa = array3d(1..3, 1..129, 1..4, [
  % k = 1
    {}, {}, {}, {},
    {}, {}, {}, {},
    {}, {}, {}, {},
    {}, {}, {}, {},
    {}, {}, {}, {},
    {}, {}, {}, {},
    {}, {}, {}, {},
    {}, {}, {}, {},
    {}, {}, {}, {},
    {}, {}, {}, {},
    {}, {}, {}, {},
    {}, {}, {}, {},
    {}, {}, {}, {},
    {}, {}, {}, {},
    {}, {}, {}, {},
    {}, {}, {}, {},
    {}, {}, {}, {},
    {}, {}, {}, {},
    {}, {}, {}, {},
    {}, {}, {}, {},
    {}, {}, {}, {},
    {}, {}, {}, {},
    {}, {}, {}, {},
    {}, {}, {}, {},
    {}, {}, {}, {},
    {}, {}, {}, {},
    {}, {}, {}, {},
    {}, {}, {}, {},
    {}, {}, {}, {},
    {}, {}, {}, {},
    {}, {}, {}, {},
    {}, {}, {}, {},
    {}, {}, {}, {},
    {}, {}, {}, {},
    {}, {}, {}, {},
    {}, {}, {}, {},
    {}, {}, {}, {},
    {}, {}, {}, {},
    {}, {}, {}, {},
    {}, {}, {}, {},
    {}, {}, {}, {},
    {}, {}, {}, {},
    {}, {}, {}, {},
    {}, {}, {}, {},
    {}, {}, {}, {},
    {}, {}, {}, {},
    {}, {}, {}, {},
    {}, {}, {}, {},
    {}, {}, {}, {},
    {}, {}, {}, {},
    {}, {}, {}, {},
    {}, {}, {}, {},
    {}, {}, {}, {},
    {}, {}, {}, {},
    {}, {}, {}, {},
    {}, {}, {}, {},
    {}, {}, {}, {},
    {}, {}, {}, {},
    {}, {}, {}, {},
    {}, {}, {}, {},
    {}, {}, {}, {},
    {}, {}, {}, {},
    {}, {}, {}, {},
    {}, {}, {}, {},
    {}, {}, {}, {},
    {}, {}, {}, {},
    {}, {}, {}, {},
    {}, {}, {}, {},
    {}, {}, {}, {},
    {}, {}, {}, {},
    {}, {}, {}, {},
    {}, {}, {}, {},
    {}, {}, {}, {},
    {}, {}, {}, {},
    {}, {}, {}, {},
    {}, {}, {}, {},
    {}, {}, {}, {},
    {}, {}, {}, {},
    {}, {}, {}, {},
    {}, {}, {}, {},
    {}, {}, {}, {},
    {}, {}, {}, {},
    {}, {}, {}, {},
    {}, {}, {}, {},
    {}, {}, {}, {},
    {}, {}, {}, {},
    {}, {}, {}, {},
    {}, {}, {}, {},
    {}, {}, {}, {},
    {}, {}, {}, {},
    {}, {}, {}, {},
    {}, {}, {}, {},
    {}, {}, {}, {},
    {}, {}, {}, {},
    {}, {}, {}, {},
    {}, {}, {}, {},
    {}, {}, {}, {},
    {}, {}, {}, {},
    {}, {}, {}, {},
    {}, {}, {}, {},
    {}, {}, {}, {},
    {}, {}, {}, {},
    {}, {}, {}, {},
    {}, {}, {}, {},
    {}, {}, {}, {},
    {}, {}, {}, {},
    {}, {}, {}, {},
    {}, {}, {}, {},
    {}, {}, {}, {},
    {}, {}, {}, {},
    {}, {}, {}, {},
    {}, {}, {}, {},
    {}, {}, {}, {},
    {}, {}, {}, {},
    {}, {}, {}, {},
    {}, {}, {}, {},
    {}, {}, {}, {},
    {}, {}, {}, {},
    {}, {}, {}, {},
    {}, {}, {}, {},
    {}, {}, {}, {},
    {}, {}, {}, {},
    {}, {}, {}, {},
    {}, {}, {}, {},
    {}, {}, {}, {},
    {}, {}, {}, {},
    {}, {}, {}, {},
    {}, {}, {}, {},
    {}, {}, {}, {},

  % k = 2
    {}, {}, {}, {},
    {}, {}, {}, {},
    {}, {}, {}, {},
    {}, {}, {}, {},
    {}, {}, {}, {},
    {}, {}, {}, {},
    {}, {}, {}, {},
    {}, {}, {}, {},
    {}, {}, {}, {},
    {}, {}, {}, {},
    {}, {}, {}, {},
    {}, {}, {}, {},
    {}, {}, {}, {},
    {}, {}, {}, {},
    {}, {}, {}, {},
    {}, {}, {}, {},
    {}, {}, {}, {},
    {}, {}, {}, {},
    {}, {}, {}, {},
    {}, {}, {}, {},
    {}, {}, {}, {},
    {}, {}, {}, {},
    {}, {}, {}, {},
    {}, {}, {}, {},
    {}, {}, {}, {},
    {}, {}, {}, {},
    {}, {}, {}, {},
    {}, {}, {}, {},
    {}, {}, {}, {},
    {}, {}, {}, {},
    {}, {}, {}, {},
    {}, {}, {}, {},
    {}, {}, {}, {},
    {}, {}, {}, {},
    {}, {}, {}, {},
    {}, {}, {}, {},
    {}, {}, {}, {},
    {}, {}, {}, {},
    {}, {}, {}, {},
    {}, {}, {}, {},
    {}, {}, {}, {},
    {}, {}, {}, {},
    {}, {}, {}, {},
    {}, {}, {}, {},
    {}, {}, {}, {},
    {}, {}, {}, {},
    {}, {}, {}, {},
    {}, {}, {}, {},
    {}, {}, {}, {},
    {}, {}, {}, {},
    {}, {}, {}, {},
    {}, {}, {}, {},
    {}, {}, {}, {},
    {}, {}, {}, {},
    {}, {}, {}, {},
    {}, {}, {}, {},
    {}, {}, {}, {},
    {}, {}, {}, {},
    {}, {}, {}, {},
    {}, {}, {}, {},
    {}, {}, {}, {},
    {}, {}, {}, {},
    {}, {}, {}, {},
    {}, {}, {}, {},
    {}, {}, {}, {},
    {}, {}, {}, {},
    {}, {}, {}, {},
    {}, {}, {}, {},
    {}, {}, {}, {},
    {}, {}, {}, {},
    {}, {}, {}, {},
    {}, {}, {}, {},
    {}, {}, {}, {},
    {}, {}, {}, {},
    {}, {}, {}, {},
    {}, {}, {}, {},
    {}, {}, {}, {},
    {}, {}, {}, {},
    {}, {}, {}, {},
    {}, {}, {}, {},
    {}, {}, {}, {},
    {}, {}, {}, {},
    {}, {}, {}, {},
    {}, {}, {}, {},
    {}, {}, {}, {},
    {}, {}, {}, {},
    {}, {}, {}, {},
    {}, {}, {}, {},
    {}, {}, {}, {},
    {}, {}, {}, {},
    {}, {}, {}, {},
    {}, {}, {}, {},
    {}, {}, {}, {},
    {}, {}, {}, {},
    {}, {}, {}, {},
    {}, {}, {}, {},
    {}, {}, {}, {},
    {}, {}, {}, {},
    {}, {}, {}, {},
    {}, {}, {}, {},
    {}, {}, {}, {},
    {}, {}, {}, {},
    {}, {}, {}, {},
    {}, {}, {}, {},
    {}, {}, {}, {},
    {}, {}, {}, {},
    {}, {}, {}, {},
    {}, {}, {}, {},
    {}, {}, {}, {},
    {}, {}, {}, {},
    {}, {}, {}, {},
    {}, {}, {}, {},
    {}, {}, {}, {},
    {}, {}, {}, {},
    {}, {}, {}, {},
    {}, {}, {}, {},
    {}, {}, {}, {},
    {}, {}, {}, {},
    {}, {}, {}, {},
    {}, {}, {}, {},
    {}, {}, {}, {},
    {}, {}, {}, {},
    {}, {}, {}, {},
    {}, {}, {}, {},
    {}, {}, {}, {},
    {}, {}, {}, {},
    {}, {}, {}, {},
    {}, {}, {}, {},
    {}, {}, {}, {},

  % k = 3
    {}, {}, {}, {},
    {}, {}, {}, {},
    {}, {}, {}, {},
    {}, {}, {}, {},
    {}, {}, {}, {},
    {}, {}, {}, {},
    {}, {}, {}, {},
    {}, {}, {}, {},
    {}, {}, {}, {},
    {}, {}, {}, {},
    {}, {}, {}, {},
    {}, {}, {}, {},
    {}, {}, {}, {},
    {}, {}, {}, {},
    {}, {}, {}, {},
    {}, {}, {}, {},
    {}, {}, {}, {},
    {}, {}, {}, {},
    {}, {}, {}, {},
    {}, {}, {}, {},
    {}, {}, {}, {},
    {}, {}, {}, {},
    {}, {}, {}, {},
    {}, {}, {}, {},
    {}, {}, {}, {},
    {}, {}, {}, {},
    {}, {}, {}, {},
    {}, {}, {}, {},
    {}, {}, {}, {},
    {}, {}, {}, {},
    {}, {}, {}, {},
    {}, {}, {}, {},
    {}, {}, {}, {},
    {}, {}, {}, {},
    {}, {}, {}, {},
    {}, {}, {}, {},
    {}, {}, {}, {},
    {}, {}, {}, {},
    {}, {}, {}, {},
    {}, {}, {}, {},
    {}, {}, {}, {},
    {}, {}, {}, {},
    {}, {}, {}, {},
    {}, {}, {}, {},
    {}, {}, {}, {},
    {}, {}, {}, {},
    {}, {}, {}, {},
    {}, {}, {}, {},
    {}, {}, {}, {},
    {}, {}, {}, {},
    {}, {}, {}, {},
    {}, {}, {}, {},
    {}, {}, {}, {},
    {}, {}, {}, {},
    {}, {}, {}, {},
    {}, {}, {}, {},
    {}, {}, {}, {},
    {}, {}, {}, {},
    {}, {}, {}, {},
    {}, {}, {}, {},
    {}, {}, {}, {},
    {}, {}, {}, {},
    {}, {}, {}, {},
    {}, {}, {}, {},
    {}, {}, {}, {},
    {}, {}, {}, {},
    {}, {}, {}, {},
    {}, {}, {}, {},
    {}, {}, {}, {},
    {}, {}, {}, {},
    {}, {}, {}, {},
    {}, {}, {}, {},
    {}, {}, {}, {},
    {}, {}, {}, {},
    {}, {}, {}, {},
    {}, {}, {}, {},
    {}, {}, {}, {},
    {}, {}, {}, {},
    {}, {}, {}, {},
    {}, {}, {}, {},
    {}, {}, {}, {},
    {}, {}, {}, {},
    {}, {}, {}, {},
    {}, {}, {}, {},
    {}, {}, {}, {},
    {}, {}, {}, {},
    {}, {}, {}, {},
    {}, {}, {}, {},
    {}, {}, {}, {},
    {}, {}, {}, {},
    {}, {}, {}, {},
    {}, {}, {}, {},
    {}, {}, {}, {},
    {}, {}, {}, {},
    {}, {}, {}, {},
    {}, {}, {}, {},
    {}, {}, {}, {},
    {}, {}, {}, {},
    {}, {}, {}, {},
    {}, {}, {}, {},
    {}, {}, {}, {},
    {}, {}, {}, {},
    {}, {}, {}, {},
    {}, {}, {}, {},
    {}, {}, {}, {},
    {}, {}, {}, {},
    {}, {}, {}, {},
    {}, {}, {}, {},
    {}, {}, {}, {},
    {}, {}, {}, {},
    {}, {}, {}, {},
    {}, {}, {}, {},
    {}, {}, {}, {},
    {}, {}, {}, {},
    {}, {}, {}, {},
    {}, {}, {}, {},
    {}, {}, {}, {},
    {}, {}, {}, {},
    {}, {}, {}, {},
    {}, {}, {}, {},
    {}, {}, {}, {},
    {}, {}, {}, {},
    {}, {}, {}, {},
    {}, {}, {}, {},
    {}, {}, {}, {},
    {}, {}, {}, {},
    {}, {}, {}, {},
    {}, {}, {}, {},
    {}, {}, {}, {}
]);
